50, 4057
108, 20
270, 50
64, 44
108, 20
54, 10
16, 11
64, 44
32, 22
96, 66
378, 70
48, 33
108, 20
128, 88
48, 33
540, 100
108, 20
108, 20
16, 11
486, 90
216, 40
160, 110
378, 70
32, 22
32, 22
270, 50
32, 22
64, 44
432, 80
80, 55
128, 88
324, 60
80, 55
48, 33
162, 30
540, 100
80, 55
80, 55
112, 77
16, 11
216, 40
162, 30
108, 20
378, 70
96, 66
16, 11
32, 22
486, 90
64, 44
160, 110
432, 80
